Version identifier: 22.1.1.0 | 2022-11-28 | 9160aff4d
CPXPARAM_Read_DataCheck                          1
Tried aggregator 2 times.
MIP Presolve eliminated 22012 rows and 502 columns.
MIP Presolve modified 13000 coefficients.
Aggregator did 200 substitutions.
Reduced MIP has 180098 rows, 60100 columns, and 611996 nonzeros.
Reduced MIP has 60100 binaries, 0 generals, 0 SOSs, and 0 indicators.
Presolve time = 0.80 sec. (450.10 ticks)
Probing fixed 2 vars, tightened 0 bounds.
Probing time = 5.55 sec. (742.43 ticks)
Tried aggregator 1 time.
Detecting symmetries...
MIP Presolve eliminated 307 rows and 101 columns.
MIP Presolve modified 130 coefficients.
Reduced MIP has 179791 rows, 59999 columns, and 610706 nonzeros.
Reduced MIP has 59999 binaries, 0 generals, 0 SOSs, and 0 indicators.
Presolve time = 0.89 sec. (444.21 ticks)
Probing time = 0.94 sec. (107.52 ticks)
Clique table members: 348792.
MIP emphasis: balance optimality and feasibility.
MIP search method: dynamic search.
Parallel mode: deterministic, using up to 4 threads.
Root relaxation solution time = 24.23 sec. (3996.13 ticks)

        Nodes                                         Cuts/
   Node  Left     Objective  IInf  Best Integer    Best Bound    ItCnt     Gap

      0     0        3.0000   404                      3.0000    60389         
Detecting symmetries...
      0     2        3.0000   333                      3.0000    60389         
Elapsed time = 95.18 sec. (19899.40 ticks, tree = 0.02 MB, solutions = 0)
      2     4        3.0000   323                      3.0000    60753         
      4     6        3.0000   320                      3.0000    61047         
      9     9        3.0000   368                      3.0000    61931         
     14    11        3.0000   312                      3.0000    62590         
     17    18        3.0000   306                      3.0000    78498         
     18    20        3.0000   286                      3.0000    91075         
     19    17        3.0400  3425                      3.0000    80858         
     20    22        3.0000   300                      3.0000   112291         
     21    23        3.0000   300                      3.0000   113071         
     23    19        3.0286  3074                      3.0000    94534         
Elapsed time = 165.12 sec. (33452.03 ticks, tree = 1.57 MB, solutions = 0)
     27    25        3.0429  3733                      3.0000   136744         
     28    27        3.0000   325                      3.0000   155997         
     33    32        3.0143  2935                      3.0000   162263         
     35    34        3.0071  2635                      3.0000   168045         
     37    36        3.0143  2981                      3.0000   174425         
     38    13        3.0381  3333                      3.0000    94841         
     39    36        3.0143  2921                      3.0000   203754         
     40    36        3.0166  3129                      3.0000   205503         
     41    36        3.0286  3199                      3.0000   213309         
     42    37        5.0000   708                      3.0000   220681         
Elapsed time = 437.92 sec. (87280.81 ticks, tree = 8.93 MB, solutions = 0)
     62    57        5.0000   592                      3.0000   221285         
     75    28        3.0143  2891                      3.0000   158468         
     81    41        3.0143  2897                      3.0000   253304         
     82    37        3.0393  3570                      3.0000   197612         
     83    44        3.0229  2958                      3.0000   278300         
     84    45        3.0286  3199                      3.0000   279096         
     89    50        5.0000   724                      3.0000   279736         
     97    58        5.0000   660                      3.0000   280163         
    116    75        5.0000   564                      3.0000   281251         
    126    79        3.0000   335                      3.0000   282390         
Elapsed time = 656.63 sec. (128088.13 ticks, tree = 18.58 MB, solutions = 0)
    134    87        3.0000   302                      3.0000   283635         
    145    90    infeasible                            3.0000   285137         
    155    94    infeasible                            3.0000   286587         
    165    94        3.0000   302                      3.0000   288075         
    174    91        3.0000   308                      3.0000   290122         
    184    91    infeasible                            3.0000   291876         
    195    90    infeasible                            3.0000   293309         
    204    97        3.0000   318                      3.0000   294470         
    212    97        3.0000   339                      3.0000   296130         
    221    98        3.0000   329                      3.0000   297418         
Elapsed time = 724.72 sec. (140694.35 ticks, tree = 38.47 MB, solutions = 0)
    229    98    infeasible                            3.0000   299051         
    231    42        3.0400  3342                      3.0000   294881         
    240   106        5.0000   734                      3.0000   344613         
    248   106    infeasible                            3.0000   345886         
    249   107        3.0071  2642                      3.0000   351218         
    259   115        5.0000   680                      3.0000   352408         
    271   123        3.0000   322                      3.0000   353907         
    280   124        3.0000   324                      3.0000   355865         
    292   136        3.0000   332                      3.0000   356474         
    301   141        3.0000   312                      3.0000   357395         
Elapsed time = 988.32 sec. (174489.90 ticks, tree = 34.21 MB, solutions = 0)
    308   142        3.0000   406                      3.0000   359181         
    318   146        3.0000   310                      3.0000   360521         
    327   147    infeasible                            3.0000   362261         
    335   147        3.0000   294                      3.0000   363980         
    348   148        3.0000   306                      3.0000   365780         
    357   145        3.0000   320                      3.0000   367542         
    363   145        3.0000   362                      3.0000   369134         
    373   149    infeasible                            3.0000   370784         
    385   147        3.0000   339                      3.0000   373047         
    393   153    infeasible                            3.0000   374452         
Elapsed time = 1021.06 sec. (184830.64 ticks, tree = 30.56 MB, solutions = 0)
    401   151        3.0000   320                      3.0000   376111         
    415   161        3.0000   349                      3.0000   377704         
    423   163        3.0000   367                      3.0000   379373         
    434   166    infeasible                            3.0000   380995         
    441   171        3.0000   314                      3.0000   382480         
    451   171        3.0000   377                      3.0000   384100         
    465   173        3.0000   314                      3.0000   385901         
    477   177        3.0000   328                      3.0000   387767         
    489   185        3.0000   314                      3.0000   389228         
    496   186    infeasible                            3.0000   391047         
Elapsed time = 1056.15 sec. (195370.80 ticks, tree = 30.38 MB, solutions = 0)
    503   189        3.0000   294                      3.0000   392973         
    518   204        3.0000   321                      3.0000   393866         
    526   208        3.0000   312                      3.0000   395119         
    533   213        3.0000   330                      3.0000   396413         
    536    67        3.0036  1787                      3.0000   276324         
    537   212        3.0000   320                      3.0000   444538         
    541   215        3.0183  2993                      3.0000   450853         

Zero-half cuts applied:  7

Root node processing (before b&c):
  Real time             =   94.81 sec. (19634.66 ticks)
Parallel b&c, 4 threads:
  Real time             = 1441.58 sec. (261951.56 ticks)
  Sync time (average)   =   53.52 sec.
  Wait time (average)   =    0.00 sec.
                          ------------
Total (root+branch&cut) = 1536.40 sec. (281586.22 ticks)
